GLPSOL--GLPK LP/MIP Solver 5.0
Parameter(s) specified in the command line:
 --lp ../modeles/3_124.lp --log 3_124.log
Reading problem data from '../modeles/3_124.lp'...
385 rows, 750 columns, 2613 non-zeros
372 integer variables, all of which are binary
1144 lines were read
GLPK Integer Optimizer 5.0
385 rows, 750 columns, 2613 non-zeros
372 integer variables, all of which are binary
Preprocessing...
366 constraint coefficient(s) were reduced
385 rows, 747 columns, 2610 non-zeros
372 integer variables, all of which are binary
Scaling...
 A: min|aij| =  1.041e-03  max|aij| =  4.000e+00  ratio =  3.844e+03
GM: min|aij| =  1.270e-01  max|aij| =  7.874e+00  ratio =  6.200e+01
EQ: min|aij| =  1.613e-02  max|aij| =  1.000e+00  ratio =  6.200e+01
2N: min|aij| =  1.562e-02  max|aij| =  1.740e+00  ratio =  1.114e+02
Constructing initial basis...
Size of triangular part is 385
Solving LP relaxation...
GLPK Simplex Optimizer 5.0
385 rows, 747 columns, 2610 non-zeros
      0: obj =   6.000000000e+00 inf =   1.450e+01 (7)
     50: obj =   3.632695562e-01 inf =   0.000e+00 (0)
*   150: obj =  -1.731797235e+00 inf =   3.469e-16 (0)
OPTIMAL LP SOLUTION FOUND
Integer optimization begins...
Long-step dual simplex will be used
+   150: mip =     not found yet >=              -inf        (1; 0)
+   152: >>>>>  -1.731797235e+00 >=  -1.731797235e+00   0.0% (3; 0)
+   152: mip =  -1.731797235e+00 >=     tree is empty   0.0% (0; 5)
INTEGER OPTIMAL SOLUTION FOUND
Time used:   0.0 secs
Memory used: 1.1 Mb (1167019 bytes)
